17962868                                
   1.00000000000000     
    10.0000000000000000    0.0000000000000000    0.0000000000000000
     0.0000000000000000   10.0000000000000000    0.0000000000000000
     0.0000000000000000    0.0000000000000000   10.0000000000000000
   F    O    C    H 
     2     1     3     6
Direct
  0.7140721776048798  0.6134807741215901  0.5526294642924351
  0.7113804643174618  0.3907758214085534  0.5514538541411581
  0.4532995669507729  0.5040689658217234  0.5586793595969953
  0.5317966063888893  0.5040658961918610  0.4417185413527160
  0.6791435859435724  0.5028919378424853  0.4770315569808409
  0.3141026884338041  0.5019545651466545  0.5291923145395799
  0.5125467178766551  0.5937879467691758  0.3794006738753558
  0.5119358777363523  0.4145488236135995  0.3792562486002017
  0.7423967269441123  0.5026469972173431  0.3866580903233248
  0.2612497739877842  0.5026497839048545  0.6251598256903630
  0.2862023866980344  0.4109035588776228  0.4730226633698156
  0.2839878121176659  0.5906495280845457  0.4704820852372180
 
  0.00000000E+00  0.00000000E+00  0.00000000E+00
  0.00000000E+00  0.00000000E+00  0.00000000E+00
  0.00000000E+00  0.00000000E+00  0.00000000E+00
  0.00000000E+00  0.00000000E+00  0.00000000E+00
  0.00000000E+00  0.00000000E+00  0.00000000E+00
  0.00000000E+00  0.00000000E+00  0.00000000E+00
  0.00000000E+00  0.00000000E+00  0.00000000E+00
  0.00000000E+00  0.00000000E+00  0.00000000E+00
  0.00000000E+00  0.00000000E+00  0.00000000E+00
  0.00000000E+00  0.00000000E+00  0.00000000E+00
  0.00000000E+00  0.00000000E+00  0.00000000E+00
  0.00000000E+00  0.00000000E+00  0.00000000E+00
