MDL molfile                             
   1.00000000000000     
    10.0000000000000000    0.0000000000000000    0.0000000000000000
     0.0000000000000000   10.0000000000000000    0.0000000000000000
     0.0000000000000000    0.0000000000000000   10.0000000000000000
   P    F    Li
     1     6     1
Direct
  0.4202289171225488  0.4983482613256805  0.4803262425077997
  0.4412050008454952  0.6366808104878730  0.4041621743149747
  0.3239946109171140  0.4343264312721785  0.3705691280094580
  0.4105690138529754  0.3525438647171322  0.5755162885712642
  0.5524707368374999  0.4331231302964951  0.4119560327153124
  0.5260586406750370  0.5514895672415521  0.6085120554943846
  0.2972494640725055  0.5552007175412192  0.5669091815423257
  0.5445429806768184  0.3916569891178761  0.6877084708444812
 
  0.00000000E+00  0.00000000E+00  0.00000000E+00
  0.00000000E+00  0.00000000E+00  0.00000000E+00
  0.00000000E+00  0.00000000E+00  0.00000000E+00
  0.00000000E+00  0.00000000E+00  0.00000000E+00
  0.00000000E+00  0.00000000E+00  0.00000000E+00
  0.00000000E+00  0.00000000E+00  0.00000000E+00
  0.00000000E+00  0.00000000E+00  0.00000000E+00
  0.00000000E+00  0.00000000E+00  0.00000000E+00
