8114                                    
   1.00000000000000     
    10.0000000000000000    0.0000000000000000    0.0000000000000000
     0.0000000000000000   10.0000000000000000    0.0000000000000000
     0.0000000000000000    0.0000000000000000   10.0000000000000000
   O    C    H 
     1     6    14
Direct
  0.4703027416980801  0.4432945495895763  0.4784773534644527
  0.6127838512456922  0.4401293371559291  0.4783020486662841
  0.4198849146444209  0.5766055955575715  0.4783710526083920
  0.6612088488328964  0.2960687186734691  0.4783858273318876
  0.2678995736171193  0.5741145809083351  0.4784225077878140
  0.8139493583339495  0.2878874910142362  0.4784524472028938
  0.2092243881404105  0.7153655621955276  0.4783155120853151
  0.6517129897299161  0.4935828324195937  0.5674874616939296
  0.6515104036022726  0.4935012420834132  0.3889778795031625
  0.4573552074936216  0.6309815582788297  0.3891317999900200
  0.4573249795803240  0.6310310068820512  0.5676095989592455
  0.6201365519029075  0.2445762268464099  0.3901443183883376
  0.6201045083470674  0.2447103418136941  0.5666985260211628
  0.2332507511717062  0.5182515246046717  0.5667750957997166
  0.2331997886063303  0.5180872809340237  0.3902062617907620
  0.8482393928770703  0.1835583052520717  0.4785255133879692
  0.8567632621899001  0.3369320171030305  0.3897240906050782
  0.8566094305588671  0.3369427235857888  0.5672607631073732
  0.0994095743340357  0.7128698993964766  0.4783576251679814
  0.2413022793245849  0.7720130729194961  0.5670636238620876
  0.2413106497688620  0.7719650157858101  0.3895791585761284
 
  0.00000000E+00  0.00000000E+00  0.00000000E+00
  0.00000000E+00  0.00000000E+00  0.00000000E+00
  0.00000000E+00  0.00000000E+00  0.00000000E+00
  0.00000000E+00  0.00000000E+00  0.00000000E+00
  0.00000000E+00  0.00000000E+00  0.00000000E+00
  0.00000000E+00  0.00000000E+00  0.00000000E+00
  0.00000000E+00  0.00000000E+00  0.00000000E+00
  0.00000000E+00  0.00000000E+00  0.00000000E+00
  0.00000000E+00  0.00000000E+00  0.00000000E+00
  0.00000000E+00  0.00000000E+00  0.00000000E+00
  0.00000000E+00  0.00000000E+00  0.00000000E+00
  0.00000000E+00  0.00000000E+00  0.00000000E+00
  0.00000000E+00  0.00000000E+00  0.00000000E+00
  0.00000000E+00  0.00000000E+00  0.00000000E+00
  0.00000000E+00  0.00000000E+00  0.00000000E+00
  0.00000000E+00  0.00000000E+00  0.00000000E+00
  0.00000000E+00  0.00000000E+00  0.00000000E+00
  0.00000000E+00  0.00000000E+00  0.00000000E+00
  0.00000000E+00  0.00000000E+00  0.00000000E+00
  0.00000000E+00  0.00000000E+00  0.00000000E+00
  0.00000000E+00  0.00000000E+00  0.00000000E+00
