7766                                    
   1.00000000000000     
    10.0000000000000000    0.0000000000000000    0.0000000000000000
     0.0000000000000000   10.0000000000000000    0.0000000000000000
     0.0000000000000000    0.0000000000000000   10.0000000000000000
   O    C    H 
     3     5    10
Direct
  0.5866795696733348  0.4420512418851509  0.4780519284706788
  0.3985817193985974  0.5515330736167448  0.4798867300319121
  0.3966554672546047  0.3307248551752320  0.5425866867520961
  0.6637163980560897  0.3207800692332554  0.5014810952831651
  0.2554098815315999  0.5585150814533016  0.5050379785884412
  0.8098655588210979  0.3561853590127050  0.4841927090064987
  0.2133617753743047  0.7026290310035078  0.4860634402334757
  0.4545585895537411  0.4310430727619989  0.5039483740226613
  0.6415473621578229  0.2841745836587898  0.6027573098898674
  0.6307761074416565  0.2439608410980378  0.4298794186559347
  0.2359912905663569  0.5225645164336385  0.6071506688867029
  0.2042710559873746  0.4906234732975567  0.4351061931507270
  0.8717006401027910  0.2671237588081870  0.5020022073554269
  0.8401594380028371  0.4338978153053337  0.5556914662931230
  0.8302533666644287  0.3924204189408559  0.3825451575874878
  0.1055409264894063  0.7123057093818856  0.5049298489390581
  0.2666276609280691  0.7687190253529067  0.5557713961067653
  0.2335381529958855  0.7367429655809076  0.3836324657459556
 
  0.00000000E+00  0.00000000E+00  0.00000000E+00
  0.00000000E+00  0.00000000E+00  0.00000000E+00
  0.00000000E+00  0.00000000E+00  0.00000000E+00
  0.00000000E+00  0.00000000E+00  0.00000000E+00
  0.00000000E+00  0.00000000E+00  0.00000000E+00
  0.00000000E+00  0.00000000E+00  0.00000000E+00
  0.00000000E+00  0.00000000E+00  0.00000000E+00
  0.00000000E+00  0.00000000E+00  0.00000000E+00
  0.00000000E+00  0.00000000E+00  0.00000000E+00
  0.00000000E+00  0.00000000E+00  0.00000000E+00
  0.00000000E+00  0.00000000E+00  0.00000000E+00
  0.00000000E+00  0.00000000E+00  0.00000000E+00
  0.00000000E+00  0.00000000E+00  0.00000000E+00
  0.00000000E+00  0.00000000E+00  0.00000000E+00
  0.00000000E+00  0.00000000E+00  0.00000000E+00
  0.00000000E+00  0.00000000E+00  0.00000000E+00
  0.00000000E+00  0.00000000E+00  0.00000000E+00
  0.00000000E+00  0.00000000E+00  0.00000000E+00
