LiFSI                                   
   1.00000000000000     
    10.0000000000000000    0.0000000000000000    0.0000000000000000
     0.0000000000000000   10.0000000000000000    0.0000000000000000
     0.0000000000000000    0.0000000000000000   10.0000000000000000
   Li   N    S    F    O 
     1     1     2     2     4
Direct
  0.4938949356796024  0.2960782690183926  0.6325642393297283
  0.4874326793611543  0.4606214176155919  0.5272186391076693
  0.3413790495178608  0.4192475569148750  0.4807138138344708
  0.5673123858663052  0.5901205011695758  0.4656259923796824
  0.2437950246911711  0.5199765184036310  0.5588986868584066
  0.7025012612438759  0.5596873717177886  0.5478828681182784
  0.3060439197984865  0.4319147081220417  0.3433678570524091
  0.3220326383251445  0.2917994619536148  0.5506915650992025
  0.5173554108624712  0.7139620972916130  0.5168130052221258
  0.6009126246539339  0.5742519737928752  0.3277032439980337
 
  0.00000000E+00  0.00000000E+00  0.00000000E+00
  0.00000000E+00  0.00000000E+00  0.00000000E+00
  0.00000000E+00  0.00000000E+00  0.00000000E+00
  0.00000000E+00  0.00000000E+00  0.00000000E+00
  0.00000000E+00  0.00000000E+00  0.00000000E+00
  0.00000000E+00  0.00000000E+00  0.00000000E+00
  0.00000000E+00  0.00000000E+00  0.00000000E+00
  0.00000000E+00  0.00000000E+00  0.00000000E+00
  0.00000000E+00  0.00000000E+00  0.00000000E+00
  0.00000000E+00  0.00000000E+00  0.00000000E+00
