7303                                    
   1.00000000000000     
    10.0000000000000000    0.0000000000000000    0.0000000000000000
     0.0000000000000000   10.0000000000000000    0.0000000000000000
     0.0000000000000000    0.0000000000000000   10.0000000000000000
   O    C    H 
     3     3     4
Direct
  0.5332506225612401  0.3867200050892504  0.4417386168789145
  0.3497156707246979  0.5114367738122496  0.4807371086310577
  0.3298764570149939  0.3140639900725954  0.3675889050347606
  0.5764545755506635  0.4918760575993806  0.5310058957131346
  0.4614098602184679  0.5926313414535964  0.5236110019587079
  0.3975307294064194  0.3959232522274150  0.4243226182466576
  0.6722703095121185  0.5312778324955321  0.4951915841338108
  0.5891585234520981  0.4490396727073030  0.6316015987639947
  0.4783600809198175  0.6712219640727172  0.4485270097753992
  0.4362356706394853  0.6382717534699597  0.6200380118635741
 
  0.00000000E+00  0.00000000E+00  0.00000000E+00
  0.00000000E+00  0.00000000E+00  0.00000000E+00
  0.00000000E+00  0.00000000E+00  0.00000000E+00
  0.00000000E+00  0.00000000E+00  0.00000000E+00
  0.00000000E+00  0.00000000E+00  0.00000000E+00
  0.00000000E+00  0.00000000E+00  0.00000000E+00
  0.00000000E+00  0.00000000E+00  0.00000000E+00
  0.00000000E+00  0.00000000E+00  0.00000000E+00
  0.00000000E+00  0.00000000E+00  0.00000000E+00
  0.00000000E+00  0.00000000E+00  0.00000000E+00
